p td 100 100
0 24
2 84
2 87
4 16
5 70
6 62
6 76
6 84
8 85
8 68
8 42
9 94
9 92
9 70
9 30
10 46
10 37
11 18
13 83
13 99
13 28
13 23
13 72
14 35
14 43
14 86
15 87
18 26
18 80
18 96
20 43
20 79
20 98
21 91
21 97
21 25
21 68
22 75
23 87
23 85
24 78
24 43
24 48
25 44
25 67
26 34
27 46
27 35
28 59
29 99
30 49
30 58
32 90
32 62
32 34
33 85
33 71
34 82
34 74
37 93
38 64
40 46
40 49
40 74
40 88
41 64
42 61
42 72
43 98
44 62
45 75
47 55
49 52
51 56
52 55
52 74
53 98
55 92
56 85
57 74
58 83
58 61
59 62
59 63
59 65
60 80
62 89
63 93
63 70
65 86
66 86
68 95
69 78
74 79
75 89
75 97
76 81
79 89
84 91
93 97
